c "973324.clq"
p edge 201 2960
e 1 17
e 1 18
e 1 19
e 1 20
e 1 23
e 1 24
e 1 26
e 1 27
e 1 28
e 1 30
e 1 31
e 1 32
e 1 36
e 1 38
e 1 39
e 1 41
e 1 42
e 1 43
e 1 45
e 1 52
e 1 59
e 1 64
e 1 65
e 1 67
e 1 68
e 1 71
e 1 77
e 1 78
e 1 89
e 1 90
e 1 92
e 1 109
e 1 120
e 1 124
e 1 127
e 1 128
e 1 131
e 1 135
e 1 138
e 1 141
e 1 148
e 1 150
e 1 151
e 1 171
e 1 173
e 1 177
e 1 179
e 1 195
e 2 17
e 2 18
e 2 19
e 2 20
e 2 21
e 2 22
e 2 23
e 2 24
e 2 25
e 2 26
e 2 27
e 2 32
e 2 33
e 2 34
e 2 37
e 2 46
e 2 48
e 2 51
e 2 52
e 2 57
e 2 63
e 2 71
e 2 73
e 2 77
e 2 87
e 2 94
e 2 100
e 2 102
e 2 109
e 2 110
e 2 118
e 2 128
e 2 134
e 2 141
e 2 154
e 2 155
e 2 159
e 2 166
e 2 177
e 2 186
e 2 196
e 3 17
e 3 18
e 3 19
e 3 20
e 3 23
e 3 24
e 3 26
e 3 28
e 3 29
e 3 30
e 3 33
e 3 34
e 3 37
e 3 42
e 3 45
e 3 58
e 3 61
e 3 66
e 3 67
e 3 69
e 3 71
e 3 74
e 3 76
e 3 77
e 3 80
e 3 89
e 3 95
e 3 96
e 3 115
e 3 116
e 3 118
e 3 119
e 3 125
e 3 133
e 3 140
e 3 146
e 3 178
e 3 197
e 4 17
e 4 18
e 4 19
e 4 22
e 4 23
e 4 24
e 4 29
e 4 30
e 4 32
e 4 34
e 4 38
e 4 39
e 4 41
e 4 42
e 4 43
e 4 46
e 4 49
e 4 51
e 4 57
e 4 62
e 4 68
e 4 95
e 4 100
e 4 102
e 4 108
e 4 125
e 4 136
e 4 140
e 4 166
e 4 176
e 4 181
e 4 191
e 4 198
e 5 17
e 5 18
e 5 20
e 5 21
e 5 22
e 5 24
e 5 25
e 5 26
e 5 27
e 5 29
e 5 31
e 5 33
e 5 35
e 5 36
e 5 40
e 5 46
e 5 47
e 5 54
e 5 72
e 5 89
e 5 91
e 5 92
e 5 96
e 5 98
e 5 106
e 5 112
e 5 118
e 5 123
e 5 130
e 5 136
e 5 163
e 5 183
e 5 193
e 6 17
e 6 18
e 6 19
e 6 20
e 6 21
e 6 22
e 6 23
e 6 24
e 6 25
e 6 26
e 6 28
e 6 30
e 6 36
e 6 38
e 6 42
e 6 43
e 6 46
e 6 48
e 6 50
e 6 55
e 6 58
e 6 61
e 6 62
e 6 63
e 6 65
e 6 68
e 6 84
e 6 85
e 6 92
e 6 97
e 6 98
e 6 101
e 6 113
e 6 116
e 6 118
e 6 119
e 6 129
e 6 130
e 6 135
e 6 144
e 6 146
e 6 150
e 6 155
e 6 157
e 6 163
e 6 168
e 6 174
e 6 182
e 6 186
e 6 201
e 7 17
e 7 18
e 7 19
e 7 20
e 7 21
e 7 22
e 7 23
e 7 24
e 7 25
e 7 28
e 7 29
e 7 30
e 7 31
e 7 33
e 7 36
e 7 40
e 7 45
e 7 51
e 7 55
e 7 57
e 7 60
e 7 64
e 7 75
e 7 76
e 7 77
e 7 79
e 7 83
e 7 91
e 7 92
e 7 93
e 7 98
e 7 128
e 7 130
e 7 132
e 7 133
e 7 136
e 7 140
e 7 146
e 7 160
e 7 164
e 7 165
e 7 167
e 7 179
e 7 182
e 7 188
e 7 200
e 8 17
e 8 18
e 8 21
e 8 22
e 8 26
e 8 27
e 8 31
e 8 42
e 8 55
e 8 56
e 8 65
e 8 68
e 8 70
e 8 97
e 8 107
e 8 117
e 8 127
e 8 150
e 8 172
e 8 173
e 8 183
e 8 191
e 8 196
e 8 200
e 9 17
e 9 18
e 9 19
e 9 21
e 9 22
e 9 25
e 9 27
e 9 31
e 9 32
e 9 38
e 9 42
e 9 44
e 9 49
e 9 57
e 9 58
e 9 60
e 9 61
e 9 69
e 9 83
e 9 88
e 9 91
e 9 96
e 9 99
e 9 104
e 9 115
e 9 132
e 9 134
e 9 135
e 9 180
e 9 181
e 9 184
e 10 17
e 10 18
e 10 19
e 10 20
e 10 21
e 10 22
e 10 23
e 10 24
e 10 26
e 10 30
e 10 33
e 10 35
e 10 37
e 10 39
e 10 43
e 10 47
e 10 52
e 10 53
e 10 64
e 10 72
e 10 77
e 10 87
e 10 115
e 10 125
e 10 126
e 10 137
e 10 146
e 10 154
e 10 156
e 10 200
e 11 17
e 11 18
e 11 19
e 11 20
e 11 21
e 11 29
e 11 32
e 11 34
e 11 35
e 11 41
e 11 45
e 11 55
e 11 58
e 11 59
e 11 62
e 11 82
e 11 107
e 11 110
e 11 113
e 11 114
e 11 120
e 11 122
e 11 126
e 11 161
e 11 166
e 11 167
e 12 17
e 12 18
e 12 19
e 12 20
e 12 21
e 12 22
e 12 25
e 12 30
e 12 38
e 12 42
e 12 53
e 12 54
e 12 58
e 12 60
e 12 61
e 12 72
e 12 74
e 12 75
e 12 80
e 12 112
e 12 170
e 12 193
e 13 17
e 13 18
e 13 19
e 13 20
e 13 21
e 13 23
e 13 24
e 13 26
e 13 27
e 13 28
e 13 33
e 13 36
e 13 39
e 13 40
e 13 43
e 13 44
e 13 47
e 13 50
e 13 52
e 13 66
e 13 67
e 13 70
e 13 76
e 13 79
e 13 81
e 13 84
e 13 86
e 13 89
e 13 97
e 13 101
e 13 102
e 13 114
e 13 122
e 13 133
e 13 145
e 13 150
e 13 161
e 13 177
e 13 179
e 13 187
e 13 194
e 13 201
e 14 17
e 14 18
e 14 19
e 14 20
e 14 21
e 14 23
e 14 25
e 14 26
e 14 27
e 14 29
e 14 31
e 14 32
e 14 33
e 14 35
e 14 38
e 14 39
e 14 42
e 14 53
e 14 56
e 14 60
e 14 65
e 14 70
e 14 72
e 14 73
e 14 77
e 14 80
e 14 84
e 14 88
e 14 91
e 14 92
e 14 108
e 14 142
e 14 145
e 14 146
e 14 155
e 14 162
e 14 172
e 14 174
e 14 175
e 14 195
e 15 17
e 15 19
e 15 20
e 15 21
e 15 22
e 15 25
e 15 30
e 15 35
e 15 36
e 15 39
e 15 40
e 15 42
e 15 44
e 15 45
e 15 48
e 15 53
e 15 55
e 15 58
e 15 62
e 15 63
e 15 66
e 15 71
e 15 86
e 15 89
e 15 92
e 15 96
e 15 103
e 15 127
e 15 133
e 15 144
e 15 145
e 15 152
e 15 167
e 15 169
e 15 170
e 15 172
e 15 173
e 15 184
e 16 17
e 16 18
e 16 19
e 16 20
e 16 22
e 16 23
e 16 28
e 16 33
e 16 34
e 16 35
e 16 37
e 16 38
e 16 41
e 16 46
e 16 47
e 16 52
e 16 54
e 16 64
e 16 67
e 16 68
e 16 69
e 16 72
e 16 75
e 16 79
e 16 81
e 16 82
e 16 86
e 16 90
e 16 93
e 16 100
e 16 103
e 16 104
e 16 112
e 16 116
e 16 119
e 16 129
e 16 132
e 16 149
e 16 153
e 16 162
e 16 165
e 16 173
e 16 178
e 16 181
e 16 193
e 17 18
e 17 19
e 17 20
e 17 21
e 17 22
e 17 23
e 17 24
e 17 25
e 17 26
e 17 27
e 17 28
e 17 31
e 17 32
e 17 33
e 17 36
e 17 37
e 17 38
e 17 39
e 17 42
e 17 43
e 17 45
e 17 46
e 17 48
e 17 49
e 17 50
e 17 52
e 17 54
e 17 55
e 17 57
e 17 58
e 17 60
e 17 61
e 17 62
e 17 63
e 17 66
e 17 70
e 17 74
e 17 75
e 17 79
e 17 81
e 17 85
e 17 89
e 17 92
e 17 94
e 17 95
e 17 97
e 17 99
e 17 109
e 17 110
e 17 112
e 17 114
e 17 116
e 17 121
e 17 122
e 17 126
e 17 129
e 17 131
e 17 136
e 17 137
e 17 144
e 17 145
e 17 148
e 17 155
e 17 156
e 17 157
e 17 160
e 17 161
e 17 166
e 17 172
e 17 175
e 17 178
e 17 180
e 17 181
e 17 185
e 17 192
e 17 196
e 17 197
e 18 19
e 18 20
e 18 21
e 18 22
e 18 23
e 18 24
e 18 25
e 18 26
e 18 27
e 18 28
e 18 29
e 18 30
e 18 31
e 18 32
e 18 33
e 18 34
e 18 36
e 18 37
e 18 40
e 18 41
e 18 47
e 18 49
e 18 52
e 18 59
e 18 60
e 18 62
e 18 67
e 18 69
e 18 71
e 18 75
e 18 76
e 18 77
e 18 79
e 18 84
e 18 89
e 18 91
e 18 98
e 18 100
e 18 103
e 18 106
e 18 110
e 18 118
e 18 121
e 18 122
e 18 123
e 18 126
e 18 127
e 18 134
e 18 135
e 18 138
e 18 141
e 18 143
e 18 150
e 18 153
e 18 155
e 18 166
e 18 171
e 18 172
e 18 176
e 18 179
e 18 182
e 18 185
e 18 194
e 18 198
e 18 200
e 19 20
e 19 21
e 19 22
e 19 23
e 19 24
e 19 25
e 19 26
e 19 27
e 19 28
e 19 29
e 19 30
e 19 31
e 19 32
e 19 33
e 19 34
e 19 35
e 19 36
e 19 39
e 19 40
e 19 42
e 19 43
e 19 44
e 19 46
e 19 48
e 19 49
e 19 50
e 19 51
e 19 52
e 19 53
e 19 56
e 19 58
e 19 61
e 19 62
e 19 65
e 19 66
e 19 68
e 19 69
e 19 70
e 19 73
e 19 74
e 19 76
e 19 87
e 19 93
e 19 96
e 19 98
e 19 102
e 19 103
e 19 104
e 19 105
e 19 110
e 19 111
e 19 112
e 19 114
e 19 116
e 19 122
e 19 124
e 19 125
e 19 132
e 19 133
e 19 134
e 19 135
e 19 138
e 19 143
e 19 145
e 19 148
e 19 149
e 19 152
e 19 153
e 19 155
e 19 162
e 19 167
e 19 169
e 19 171
e 19 177
e 19 178
e 19 192
e 19 195
e 19 198
e 19 200
e 20 21
e 20 22
e 20 23
e 20 24
e 20 25
e 20 27
e 20 28
e 20 29
e 20 31
e 20 32
e 20 33
e 20 34
e 20 35
e 20 36
e 20 38
e 20 39
e 20 44
e 20 47
e 20 48
e 20 49
e 20 50
e 20 52
e 20 53
e 20 54
e 20 56
e 20 59
e 20 60
e 20 64
e 20 65
e 20 66
e 20 68
e 20 69
e 20 72
e 20 77
e 20 80
e 20 82
e 20 85
e 20 90
e 20 91
e 20 93
e 20 95
e 20 104
e 20 106
e 20 111
e 20 113
e 20 115
e 20 117
e 20 121
e 20 124
e 20 125
e 20 132
e 20 140
e 20 156
e 20 157
e 20 158
e 20 159
e 20 160
e 20 164
e 20 165
e 20 168
e 20 173
e 20 175
e 20 183
e 20 186
e 20 193
e 20 199
e 21 22
e 21 23
e 21 24
e 21 25
e 21 26
e 21 27
e 21 28
e 21 29
e 21 31
e 21 32
e 21 34
e 21 35
e 21 36
e 21 37
e 21 40
e 21 41
e 21 43
e 21 44
e 21 46
e 21 48
e 21 50
e 21 51
e 21 52
e 21 54
e 21 55
e 21 56
e 21 59
e 21 63
e 21 65
e 21 66
e 21 70
e 21 71
e 21 76
e 21 83
e 21 84
e 21 86
e 21 88
e 21 89
e 21 90
e 21 95
e 21 101
e 21 104
e 21 107
e 21 109
e 21 111
e 21 114
e 21 122
e 21 123
e 21 125
e 21 126
e 21 130
e 21 131
e 21 142
e 21 149
e 21 155
e 21 161
e 21 163
e 21 172
e 21 176
e 21 181
e 21 185
e 21 195
e 21 199
e 22 23
e 22 24
e 22 25
e 22 26
e 22 28
e 22 29
e 22 30
e 22 31
e 22 37
e 22 38
e 22 39
e 22 40
e 22 41
e 22 43
e 22 44
e 22 47
e 22 48
e 22 50
e 22 54
e 22 55
e 22 60
e 22 61
e 22 62
e 22 63
e 22 64
e 22 65
e 22 67
e 22 68
e 22 72
e 22 78
e 22 79
e 22 80
e 22 82
e 22 85
e 22 94
e 22 96
e 22 98
e 22 101
e 22 104
e 22 108
e 22 112
e 22 120
e 22 121
e 22 122
e 22 124
e 22 125
e 22 129
e 22 132
e 22 137
e 22 138
e 22 139
e 22 140
e 22 141
e 22 151
e 22 154
e 22 156
e 22 160
e 22 161
e 22 162
e 22 165
e 22 170
e 22 173
e 22 174
e 22 178
e 22 179
e 22 182
e 22 183
e 22 185
e 22 200
e 23 24
e 23 25
e 23 26
e 23 27
e 23 28
e 23 29
e 23 30
e 23 32
e 23 33
e 23 34
e 23 35
e 23 36
e 23 37
e 23 43
e 23 46
e 23 47
e 23 48
e 23 50
e 23 51
e 23 52
e 23 55
e 23 56
e 23 57
e 23 60
e 23 61
e 23 64
e 23 67
e 23 68
e 23 70
e 23 71
e 23 74
e 23 75
e 23 79
e 23 81
e 23 85
e 23 92
e 23 105
e 23 113
e 23 115
e 23 117
e 23 120
e 23 133
e 23 137
e 23 138
e 23 145
e 23 159
e 23 167
e 23 171
e 23 174
e 23 180
e 23 184
e 23 186
e 23 189
e 23 190
e 23 191
e 23 196
e 23 199
e 24 25
e 24 26
e 24 27
e 24 28
e 24 29
e 24 30
e 24 31
e 24 32
e 24 36
e 24 40
e 24 41
e 24 45
e 24 46
e 24 48
e 24 49
e 24 59
e 24 62
e 24 64
e 24 67
e 24 69
e 24 76
e 24 78
e 24 79
e 24 80
e 24 82
e 24 85
e 24 98
e 24 100
e 24 105
e 24 119
e 24 127
e 24 128
e 24 131
e 24 132
e 24 137
e 24 145
e 24 166
e 24 170
e 24 173
e 24 179
e 24 180
e 24 188
e 24 196
e 24 197
e 24 198
e 25 27
e 25 28
e 25 32
e 25 33
e 25 34
e 25 35
e 25 36
e 25 37
e 25 41
e 25 42
e 25 43
e 25 46
e 25 49
e 25 51
e 25 53
e 25 58
e 25 59
e 25 60
e 25 62
e 25 66
e 25 69
e 25 74
e 25 77
e 25 82
e 25 84
e 25 90
e 25 91
e 25 92
e 25 98
e 25 105
e 25 106
e 25 109
e 25 120
e 25 123
e 25 124
e 25 131
e 25 136
e 25 150
e 25 156
e 25 157
e 25 164
e 25 168
e 25 170
e 25 179
e 25 192
e 25 193
e 25 194
e 25 198
e 25 200
e 26 27
e 26 28
e 26 29
e 26 30
e 26 31
e 26 32
e 26 34
e 26 35
e 26 40
e 26 46
e 26 47
e 26 48
e 26 53
e 26 55
e 26 57
e 26 61
e 26 67
e 26 69
e 26 74
e 26 79
e 26 83
e 26 86
e 26 89
e 26 99
e 26 102
e 26 103
e 26 104
e 26 121
e 26 127
e 26 129
e 26 130
e 26 131
e 26 133
e 26 134
e 26 141
e 26 147
e 26 148
e 26 152
e 26 167
e 26 182
e 27 29
e 27 30
e 27 31
e 27 36
e 27 37
e 27 41
e 27 45
e 27 49
e 27 50
e 27 51
e 27 54
e 27 70
e 27 71
e 27 80
e 27 84
e 27 93
e 27 94
e 27 96
e 27 97
e 27 100
e 27 105
e 27 107
e 27 113
e 27 119
e 27 121
e 27 123
e 27 140
e 27 141
e 27 153
e 27 166
e 27 171
e 27 173
e 27 182
e 27 188
e 27 195
e 27 196
e 28 29
e 28 30
e 28 32
e 28 33
e 28 34
e 28 35
e 28 37
e 28 38
e 28 40
e 28 44
e 28 46
e 28 54
e 28 58
e 28 59
e 28 75
e 28 76
e 28 77
e 28 79
e 28 81
e 28 83
e 28 85
e 28 86
e 28 88
e 28 89
e 28 91
e 28 93
e 28 94
e 28 95
e 28 96
e 28 100
e 28 109
e 28 110
e 28 111
e 28 113
e 28 123
e 28 133
e 28 150
e 28 152
e 28 153
e 28 157
e 28 169
e 28 178
e 28 180
e 28 181
e 29 39
e 29 40
e 29 45
e 29 51
e 29 57
e 29 60
e 29 74
e 29 75
e 29 80
e 29 88
e 29 93
e 29 95
e 29 98
e 29 107
e 29 115
e 29 117
e 29 121
e 29 122
e 29 125
e 29 127
e 29 142
e 29 145
e 29 152
e 29 167
e 29 168
e 29 171
e 29 175
e 29 196
e 29 201
e 30 31
e 30 34
e 30 35
e 30 36
e 30 37
e 30 38
e 30 39
e 30 40
e 30 41
e 30 42
e 30 43
e 30 47
e 30 48
e 30 53
e 30 56
e 30 58
e 30 61
e 30 63
e 30 69
e 30 74
e 30 80
e 30 83
e 30 89
e 30 90
e 30 99
e 30 108
e 30 110
e 30 114
e 30 128
e 30 136
e 30 140
e 30 147
e 30 148
e 30 153
e 30 154
e 30 164
e 30 165
e 30 166
e 30 172
e 30 174
e 30 175
e 30 179
e 30 183
e 30 186
e 30 189
e 30 191
e 30 195
e 31 38
e 31 39
e 31 41
e 31 43
e 31 44
e 31 45
e 31 46
e 31 49
e 31 52
e 31 54
e 31 56
e 31 57
e 31 66
e 31 67
e 31 78
e 31 86
e 31 87
e 31 90
e 31 91
e 31 126
e 31 139
e 31 158
e 31 159
e 31 160
e 31 169
e 31 172
e 31 184
e 32 33
e 32 34
e 32 35
e 32 37
e 32 38
e 32 41
e 32 44
e 32 48
e 32 56
e 32 57
e 32 59
e 32 61
e 32 62
e 32 64
e 32 68
e 32 70
e 32 74
e 32 75
e 32 76
e 32 77
e 32 78
e 32 84
e 32 88
e 32 91
e 32 92
e 32 94
e 32 95
e 32 97
e 32 100
e 32 101
e 32 102
e 32 103
e 32 104
e 32 107
e 32 109
e 32 113
e 32 116
e 32 118
e 32 122
e 32 129
e 32 135
e 32 141
e 32 142
e 32 144
e 32 145
e 32 147
e 32 154
e 32 157
e 32 171
e 32 173
e 32 175
e 32 179
e 32 186
e 32 190
e 32 196
e 32 197
e 32 201
e 33 34
e 33 35
e 33 37
e 33 41
e 33 42
e 33 43
e 33 44
e 33 45
e 33 48
e 33 49
e 33 50
e 33 54
e 33 55
e 33 63
e 33 78
e 33 81
e 33 85
e 33 87
e 33 93
e 33 99
e 33 101
e 33 102
e 33 105
e 33 109
e 33 136
e 33 147
e 33 149
e 33 151
e 33 156
e 33 160
e 33 167
e 33 187
e 33 192
e 33 201
e 34 39
e 34 40
e 34 41
e 34 42
e 34 45
e 34 47
e 34 51
e 34 52
e 34 54
e 34 61
e 34 63
e 34 65
e 34 73
e 34 75
e 34 80
e 34 86
e 34 90
e 34 91
e 34 97
e 34 111
e 34 117
e 34 123
e 34 135
e 34 137
e 34 138
e 34 143
e 34 144
e 34 151
e 34 154
e 34 155
e 34 157
e 34 177
e 34 186
e 34 191
e 35 37
e 35 38
e 35 40
e 35 44
e 35 45
e 35 49
e 35 51
e 35 53
e 35 58
e 35 67
e 35 70
e 35 74
e 35 76
e 35 85
e 35 88
e 35 95
e 35 115
e 35 120
e 35 122
e 35 130
e 35 131
e 35 139
e 35 148
e 35 169
e 35 170
e 35 180
e 35 185
e 35 197
e 35 198
e 36 38
e 36 39
e 36 40
e 36 43
e 36 44
e 36 46
e 36 47
e 36 49
e 36 53
e 36 56
e 36 59
e 36 61
e 36 65
e 36 72
e 36 75
e 36 79
e 36 83
e 36 86
e 36 94
e 36 97
e 36 98
e 36 101
e 36 103
e 36 111
e 36 117
e 36 120
e 36 122
e 36 130
e 36 134
e 36 142
e 36 153
e 36 156
e 36 160
e 36 183
e 37 44
e 37 49
e 37 50
e 37 64
e 37 67
e 37 68
e 37 72
e 37 75
e 37 76
e 37 77
e 37 86
e 37 88
e 37 94
e 37 96
e 37 101
e 37 104
e 37 109
e 37 113
e 37 115
e 37 120
e 37 127
e 37 134
e 37 139
e 37 141
e 37 147
e 37 152
e 37 158
e 37 160
e 37 161
e 37 175
e 37 183
e 37 191
e 38 39
e 38 51
e 38 55
e 38 66
e 38 90
e 38 102
e 38 104
e 38 114
e 38 132
e 38 139
e 38 150
e 38 155
e 39 41
e 39 44
e 39 45
e 39 50
e 39 53
e 39 55
e 39 57
e 39 59
e 39 60
e 39 62
e 39 63
e 39 70
e 39 72
e 39 76
e 39 78
e 39 81
e 39 87
e 39 96
e 39 99
e 39 111
e 39 116
e 39 133
e 39 149
e 39 163
e 39 168
e 39 172
e 40 42
e 40 44
e 40 46
e 40 54
e 40 59
e 40 61
e 40 64
e 40 69
e 40 74
e 40 76
e 40 81
e 40 82
e 40 83
e 40 86
e 40 87
e 40 90
e 40 95
e 40 98
e 40 100
e 40 104
e 40 105
e 40 108
e 40 111
e 40 120
e 40 131
e 40 138
e 40 142
e 40 143
e 40 146
e 40 148
e 40 162
e 40 190
e 41 43
e 41 50
e 41 51
e 41 56
e 41 57
e 41 66
e 41 68
e 41 69
e 41 73
e 41 77
e 41 78
e 41 89
e 41 102
e 41 103
e 41 108
e 41 109
e 41 110
e 41 121
e 41 123
e 41 128
e 41 134
e 41 147
e 41 148
e 41 156
e 41 158
e 41 160
e 41 170
e 41 178
e 41 182
e 41 185
e 41 189
e 41 190
e 41 191
e 41 194
e 42 45
e 42 47
e 42 49
e 42 59
e 42 61
e 42 63
e 42 68
e 42 77
e 42 80
e 42 87
e 42 91
e 42 97
e 42 99
e 42 102
e 42 105
e 42 106
e 42 111
e 42 139
e 42 140
e 42 154
e 42 161
e 42 179
e 42 191
e 42 199
e 43 47
e 43 48
e 43 49
e 43 50
e 43 51
e 43 52
e 43 59
e 43 64
e 43 66
e 43 69
e 43 75
e 43 79
e 43 83
e 43 86
e 43 90
e 43 96
e 43 100
e 43 101
e 43 112
e 43 126
e 43 147
e 43 154
e 43 173
e 43 181
e 43 198
e 43 199
e 44 45
e 44 47
e 44 52
e 44 56
e 44 58
e 44 61
e 44 62
e 44 63
e 44 64
e 44 65
e 44 66
e 44 71
e 44 73
e 44 78
e 44 79
e 44 91
e 44 92
e 44 98
e 44 100
e 44 111
e 44 114
e 44 117
e 44 118
e 44 124
e 44 125
e 44 129
e 44 131
e 44 136
e 44 140
e 44 142
e 44 143
e 44 144
e 44 149
e 44 153
e 44 154
e 44 167
e 44 169
e 44 177
e 44 180
e 44 195
e 45 50
e 45 57
e 45 58
e 45 60
e 45 63
e 45 65
e 45 92
e 45 96
e 45 105
e 45 106
e 45 120
e 45 123
e 45 125
e 45 128
e 45 137
e 45 147
e 45 152
e 45 162
e 45 176
e 45 197
e 45 198
e 46 47
e 46 55
e 46 57
e 46 59
e 46 62
e 46 73
e 46 78
e 46 81
e 46 82
e 46 86
e 46 95
e 46 100
e 46 105
e 46 114
e 46 146
e 46 157
e 46 172
e 46 199
e 47 48
e 47 53
e 47 54
e 47 56
e 47 63
e 47 67
e 47 71
e 47 72
e 47 73
e 47 74
e 47 84
e 47 95
e 47 98
e 47 103
e 47 107
e 47 121
e 47 133
e 47 142
e 47 144
e 47 146
e 47 149
e 47 158
e 47 165
e 47 178
e 47 184
e 47 192
e 47 193
e 48 50
e 48 51
e 48 52
e 48 55
e 48 56
e 48 64
e 48 66
e 48 67
e 48 69
e 48 71
e 48 72
e 48 73
e 48 82
e 48 88
e 48 92
e 48 99
e 48 103
e 48 106
e 48 108
e 48 109
e 48 112
e 48 113
e 48 116
e 48 123
e 48 128
e 48 138
e 48 143
e 48 152
e 48 162
e 48 187
e 48 200
e 49 53
e 49 55
e 49 57
e 49 62
e 49 64
e 49 68
e 49 69
e 49 71
e 49 73
e 49 79
e 49 81
e 49 85
e 49 94
e 49 96
e 49 102
e 49 104
e 49 109
e 49 112
e 49 128
e 49 135
e 49 140
e 49 142
e 49 145
e 49 153
e 49 159
e 49 165
e 49 178
e 49 191
e 49 197
e 50 51
e 50 57
e 50 62
e 50 65
e 50 78
e 50 79
e 50 80
e 50 82
e 50 84
e 50 94
e 50 97
e 50 99
e 50 111
e 50 112
e 50 116
e 50 140
e 50 148
e 50 164
e 50 167
e 50 184
e 50 191
e 50 192
e 51 53
e 51 56
e 51 63
e 51 68
e 51 72
e 51 78
e 51 79
e 51 86
e 51 87
e 51 93
e 51 96
e 51 97
e 51 102
e 51 105
e 51 114
e 51 119
e 51 120
e 51 121
e 51 122
e 51 123
e 51 136
e 51 150
e 51 157
e 51 159
e 51 171
e 51 200
e 52 53
e 52 54
e 52 65
e 52 69
e 52 70
e 52 76
e 52 80
e 52 83
e 52 92
e 52 107
e 52 108
e 52 114
e 52 115
e 52 119
e 52 120
e 52 129
e 52 132
e 52 134
e 52 163
e 52 169
e 52 174
e 52 194
e 53 54
e 53 58
e 53 60
e 53 73
e 53 74
e 53 84
e 53 93
e 53 97
e 53 106
e 53 108
e 53 109
e 53 114
e 53 126
e 53 134
e 53 139
e 53 141
e 53 143
e 53 145
e 53 156
e 53 157
e 53 159
e 53 166
e 53 168
e 53 172
e 53 173
e 53 174
e 53 181
e 53 183
e 54 71
e 54 73
e 54 78
e 54 81
e 54 83
e 54 85
e 54 88
e 54 99
e 54 123
e 54 124
e 54 128
e 54 138
e 54 151
e 54 154
e 54 155
e 54 163
e 54 188
e 54 200
e 55 56
e 55 70
e 55 73
e 55 93
e 55 97
e 55 101
e 55 105
e 55 108
e 55 110
e 55 116
e 55 117
e 55 122
e 55 126
e 55 127
e 55 134
e 55 136
e 55 144
e 55 146
e 55 148
e 55 150
e 55 154
e 55 155
e 55 162
e 55 171
e 55 176
e 55 181
e 55 199
e 55 201
e 56 58
e 56 60
e 56 81
e 56 88
e 56 92
e 56 107
e 56 115
e 56 117
e 56 119
e 56 127
e 56 131
e 56 136
e 56 148
e 56 153
e 56 159
e 56 160
e 56 168
e 56 174
e 56 177
e 56 189
e 56 199
e 57 59
e 57 71
e 57 77
e 57 94
e 57 103
e 57 113
e 57 117
e 57 128
e 57 130
e 57 141
e 57 156
e 57 161
e 57 168
e 57 170
e 57 176
e 57 180
e 57 183
e 57 197
e 58 60
e 58 66
e 58 67
e 58 70
e 58 72
e 58 75
e 58 81
e 58 101
e 58 114
e 58 121
e 58 129
e 58 133
e 58 141
e 58 149
e 58 155
e 58 164
e 58 165
e 58 177
e 58 191
e 58 200
e 59 65
e 59 73
e 59 90
e 59 104
e 59 106
e 59 107
e 59 123
e 59 130
e 59 139
e 59 148
e 59 164
e 59 190
e 59 193
e 59 197
e 60 64
e 60 70
e 60 71
e 60 78
e 60 81
e 60 99
e 60 117
e 60 123
e 60 141
e 60 143
e 60 145
e 60 176
e 60 183
e 61 63
e 61 66
e 61 70
e 61 73
e 61 82
e 61 85
e 61 92
e 61 95
e 61 103
e 61 107
e 61 130
e 61 140
e 61 161
e 61 188
e 61 193
e 62 65
e 62 74
e 62 77
e 62 87
e 62 90
e 62 101
e 62 107
e 62 111
e 62 120
e 62 124
e 62 128
e 62 130
e 62 132
e 63 72
e 63 75
e 63 80
e 63 88
e 63 98
e 63 101
e 63 103
e 63 108
e 63 115
e 63 118
e 63 133
e 63 139
e 63 148
e 63 180
e 63 189
e 63 194
e 64 71
e 64 80
e 64 85
e 64 90
e 64 99
e 64 111
e 64 116
e 64 118
e 64 130
e 64 133
e 64 134
e 64 136
e 64 137
e 64 139
e 64 140
e 64 161
e 64 162
e 64 181
e 64 182
e 64 185
e 64 201
e 65 84
e 65 87
e 65 94
e 65 97
e 65 99
e 65 106
e 65 129
e 65 131
e 65 132
e 65 137
e 65 138
e 65 153
e 65 157
e 65 159
e 65 170
e 65 171
e 65 175
e 65 178
e 65 181
e 65 189
e 65 195
e 65 197
e 66 67
e 66 83
e 66 88
e 66 93
e 66 121
e 66 131
e 66 161
e 66 184
e 66 197
e 67 68
e 67 83
e 67 85
e 67 100
e 67 102
e 67 103
e 67 106
e 67 136
e 67 149
e 67 153
e 67 156
e 67 167
e 67 175
e 67 181
e 67 187
e 67 190
e 67 192
e 67 194
e 68 73
e 68 80
e 68 84
e 68 93
e 68 102
e 68 112
e 68 114
e 68 147
e 68 159
e 68 175
e 68 186
e 68 199
e 69 72
e 69 82
e 69 83
e 69 93
e 69 96
e 69 122
e 69 126
e 69 136
e 69 140
e 69 142
e 69 149
e 69 156
e 69 166
e 69 194
e 69 196
e 70 82
e 70 142
e 70 149
e 70 183
e 70 189
e 71 74
e 71 85
e 71 86
e 71 93
e 71 102
e 71 107
e 71 109
e 71 113
e 71 153
e 71 157
e 71 159
e 71 165
e 71 183
e 72 90
e 72 104
e 72 118
e 72 127
e 72 172
e 72 175
e 72 179
e 72 201
e 73 75
e 73 76
e 73 81
e 73 82
e 73 83
e 73 84
e 73 88
e 73 104
e 73 110
e 73 112
e 73 119
e 73 120
e 73 121
e 73 124
e 73 126
e 73 143
e 73 146
e 73 157
e 74 78
e 74 84
e 74 87
e 74 88
e 74 89
e 74 91
e 74 95
e 74 100
e 74 112
e 74 125
e 74 127
e 74 131
e 74 135
e 74 137
e 74 148
e 74 168
e 74 186
e 74 187
e 74 188
e 75 76
e 75 78
e 75 89
e 75 95
e 75 110
e 75 112
e 75 119
e 75 120
e 75 124
e 75 132
e 75 137
e 75 143
e 75 152
e 75 171
e 75 174
e 75 180
e 75 187
e 75 192
e 76 87
e 76 110
e 76 111
e 76 134
e 76 143
e 76 185
e 76 186
e 77 82
e 77 87
e 77 98
e 77 111
e 77 118
e 77 126
e 77 128
e 77 141
e 77 144
e 77 164
e 77 169
e 77 170
e 78 89
e 78 94
e 78 97
e 78 126
e 78 135
e 78 169
e 78 200
e 79 81
e 79 83
e 79 85
e 79 86
e 79 87
e 79 91
e 79 158
e 79 167
e 79 178
e 79 193
e 80 106
e 80 118
e 80 128
e 80 130
e 80 131
e 80 133
e 80 139
e 80 181
e 80 198
e 81 82
e 81 87
e 81 94
e 81 97
e 81 98
e 81 99
e 81 102
e 81 106
e 81 131
e 81 135
e 81 143
e 81 149
e 81 172
e 82 89
e 82 95
e 82 101
e 82 118
e 82 122
e 82 127
e 82 134
e 82 135
e 82 137
e 82 139
e 82 140
e 82 147
e 82 161
e 82 175
e 82 187
e 82 194
e 83 84
e 83 107
e 83 110
e 83 114
e 83 123
e 83 124
e 83 132
e 83 138
e 83 174
e 83 177
e 83 184
e 83 191
e 83 192
e 83 201
e 84 91
e 84 93
e 84 106
e 84 115
e 84 125
e 84 135
e 84 139
e 84 143
e 84 152
e 84 163
e 84 166
e 84 178
e 84 182
e 84 192
e 85 99
e 85 108
e 85 110
e 85 117
e 85 119
e 85 130
e 85 141
e 85 144
e 85 152
e 85 155
e 85 164
e 85 171
e 85 179
e 85 184
e 86 100
e 86 110
e 86 113
e 86 124
e 86 151
e 86 154
e 86 173
e 86 194
e 87 88
e 87 90
e 87 96
e 87 146
e 87 157
e 87 166
e 87 169
e 88 94
e 88 127
e 88 158
e 88 182
e 88 199
e 89 94
e 89 101
e 89 103
e 89 113
e 89 124
e 89 129
e 89 134
e 89 138
e 89 156
e 89 158
e 89 161
e 89 177
e 90 109
e 90 115
e 90 119
e 90 129
e 90 144
e 90 146
e 90 147
e 90 150
e 90 159
e 90 160
e 90 177
e 90 178
e 90 198
e 91 107
e 91 108
e 91 109
e 91 112
e 91 117
e 91 123
e 91 129
e 91 143
e 91 145
e 91 151
e 91 158
e 91 163
e 91 170
e 91 175
e 91 184
e 91 185
e 91 191
e 91 198
e 92 105
e 92 106
e 92 154
e 92 160
e 92 180
e 93 144
e 93 166
e 93 199
e 94 116
e 94 128
e 94 129
e 94 131
e 94 138
e 94 142
e 94 186
e 95 100
e 95 111
e 95 168
e 95 187
e 96 105
e 96 108
e 96 116
e 96 139
e 96 147
e 96 168
e 96 174
e 96 182
e 96 187
e 96 188
e 97 99
e 97 101
e 97 106
e 97 114
e 97 115
e 97 117
e 97 119
e 97 170
e 97 198
e 98 124
e 98 128
e 98 132
e 98 142
e 98 157
e 98 166
e 98 177
e 98 180
e 99 105
e 99 121
e 99 138
e 99 142
e 99 145
e 99 187
e 100 108
e 100 125
e 100 158
e 100 187
e 101 104
e 101 108
e 101 116
e 101 126
e 101 149
e 101 150
e 101 182
e 102 103
e 102 107
e 102 135
e 102 137
e 102 155
e 102 162
e 102 164
e 102 170
e 102 172
e 102 176
e 102 187
e 102 192
e 102 199
e 103 118
e 103 145
e 103 149
e 103 169
e 104 105
e 104 115
e 104 127
e 104 144
e 104 151
e 104 159
e 104 170
e 104 196
e 105 112
e 105 113
e 105 117
e 105 120
e 105 122
e 105 130
e 105 143
e 105 146
e 105 151
e 105 162
e 105 176
e 105 179
e 105 182
e 106 113
e 106 118
e 106 119
e 106 126
e 106 140
e 106 168
e 106 174
e 106 190
e 107 147
e 107 152
e 107 153
e 107 164
e 107 192
e 108 160
e 108 185
e 109 110
e 109 113
e 109 116
e 109 147
e 109 196
e 110 138
e 110 139
e 110 151
e 110 168
e 110 171
e 110 174
e 110 177
e 110 181
e 110 198
e 110 199
e 111 142
e 111 153
e 111 155
e 111 190
e 112 116
e 112 121
e 112 124
e 112 136
e 112 158
e 112 162
e 112 163
e 112 180
e 112 200
e 113 130
e 113 135
e 113 142
e 113 154
e 113 164
e 113 167
e 113 188
e 114 115
e 114 139
e 114 177
e 115 119
e 115 129
e 115 148
e 115 190
e 116 117
e 116 150
e 116 151
e 116 168
e 116 184
e 116 194
e 116 198
e 117 118
e 117 119
e 117 125
e 117 134
e 117 146
e 117 148
e 117 189
e 118 125
e 118 145
e 118 190
e 119 121
e 119 151
e 119 160
e 119 182
e 119 188
e 119 193
e 120 158
e 120 159
e 120 162
e 120 174
e 120 189
e 120 197
e 121 126
e 121 151
e 121 157
e 121 171
e 121 176
e 121 191
e 122 125
e 122 158
e 122 159
e 122 167
e 122 169
e 122 173
e 122 183
e 122 187
e 122 195
e 122 199
e 123 124
e 123 133
e 123 137
e 123 162
e 123 165
e 123 175
e 123 201
e 125 132
e 125 153
e 125 161
e 125 176
e 125 194
e 126 127
e 126 149
e 127 133
e 127 136
e 127 154
e 127 158
e 127 169
e 127 182
e 127 186
e 127 201
e 128 129
e 128 137
e 128 141
e 128 144
e 128 146
e 128 151
e 128 161
e 129 132
e 129 135
e 129 143
e 129 151
e 129 152
e 129 165
e 129 166
e 129 172
e 130 162
e 130 165
e 130 192
e 131 151
e 131 156
e 131 164
e 131 169
e 131 193
e 131 195
e 132 141
e 132 144
e 132 147
e 132 176
e 132 196
e 132 197
e 133 137
e 133 150
e 133 162
e 133 163
e 133 180
e 133 194
e 134 161
e 134 169
e 134 181
e 134 193
e 135 188
e 135 191
e 136 138
e 136 163
e 136 165
e 136 186
e 136 200
e 137 149
e 137 152
e 137 185
e 138 146
e 138 159
e 138 184
e 138 189
e 139 158
e 139 182
e 140 163
e 140 179
e 140 180
e 141 150
e 141 152
e 141 189
e 141 193
e 141 199
e 142 144
e 142 160
e 142 173
e 142 190
e 142 192
e 143 147
e 143 150
e 143 165
e 143 183
e 143 189
e 144 175
e 146 152
e 146 183
e 147 167
e 147 195
e 148 168
e 148 185
e 149 154
e 149 173
e 149 180
e 149 184
e 149 188
e 149 194
e 150 155
e 150 176
e 150 192
e 151 156
e 151 158
e 151 165
e 151 178
e 152 163
e 152 175
e 152 176
e 152 181
e 152 187
e 152 188
e 152 196
e 154 177
e 155 156
e 155 163
e 155 168
e 155 169
e 155 174
e 155 183
e 155 195
e 155 196
e 155 198
e 155 201
e 156 163
e 156 164
e 156 165
e 156 167
e 156 192
e 156 195
e 156 197
e 157 160
e 157 170
e 157 178
e 157 179
e 157 193
e 157 201
e 158 164
e 158 176
e 158 190
e 160 193
e 161 171
e 161 185
e 162 163
e 162 164
e 162 173
e 163 166
e 163 172
e 164 187
e 164 188
e 164 191
e 165 170
e 165 194
e 166 188
e 166 196
e 166 198
e 167 179
e 167 194
e 167 200
e 167 201
e 169 171
e 169 178
e 169 185
e 169 195
e 170 177
e 171 174
e 171 176
e 171 186
e 172 186
e 173 185
e 173 188
e 173 190
e 173 195
e 175 189
e 178 184
e 179 184
e 180 185
e 180 190
e 182 189
e 182 200
e 183 184
e 183 186
e 183 187
e 183 188
e 183 190
e 183 201
e 184 189
e 185 189
e 185 190
e 188 199
e 190 201
e 191 193
e 192 197
e 193 196
e 194 195
e 195 197
